pr8_2
0 134 79 102 28 138 145 111 20 51 61 140 130 82 8 10 139 144 70 137 95 13 43 27 21 66 115 31 14 17 74 147 24 49 120 128 64 59 149 22 116 86 60 7 35 53 105 63 65 100 94 91 99 112 26 19 117 143 90 81 6 57 129 41 69 141 46 97 48 4 136 36 142 121 87 146 67 92 93 131 122 84 110 75 72 123 108 133 55 47 40 132 33 30 106 58 89 34 62 85 32 78 45 127 107 39 114 109 68 15 56 9 23 124 126 54 148 76 80 18 16 71 52 119 103 25 83 135 98 44 12 101 77 104 11 42 37 96 38 50 73 113 29 88 118 125 0